set I := i0 i1 i2 i3 i4 i5 i6 i7 i8 i9 i10;
set J := j0 j1 j2 j3 j4 j5 j6 j7 j8 j9 j10;

param O :=
i0 33.0
i1 5.0
i2 41.0
i3 28.0
i4 7.0
i5 73.0
i6 72.0
i7 12.0
i8 34.0
i9 33.0
i10 48.0
;

param D :=
j0 14.0
j1 25.0
j2 25.0
j3 22.0
j4 10.0
j5 21.0
j6 14.0
j7 37.0
j8 32.0
j9 27.0
j10 9.0
;

param C : j0 j1 j2 j3 j4 j5 j6 j7 j8 j9 j10 :=
i0 52.0 93.0 15.0 72.0 61.0 21.0 83.0 87.0 75.0 75.0 88.0
i1 100.0 24.0 3.0 22.0 53.0 2.0 88.0 30.0 38.0 2.0 64.0
i2 60.0 21.0 33.0 76.0 58.0 22.0 89.0 49.0 91.0 59.0 42.0
i3 92.0 60.0 80.0 15.0 62.0 62.0 47.0 62.0 51.0 55.0 64.0
i4 3.0 51.0 7.0 21.0 73.0 39.0 18.0 4.0 89.0 60.0 14.0
i5 9.0 90.0 53.0 2.0 84.0 92.0 60.0 71.0 44.0 8.0 47.0
i6 35.0 78.0 81.0 36.0 50.0 4.0 2.0 6.0 54.0 4.0 54.0
i7 93.0 63.0 18.0 90.0 44.0 34.0 74.0 62.0 100.0 14.0 95.0
i8 48.0 15.0 72.0 78.0 87.0 62.0 40.0 85.0 80.0 82.0 53.0
i9 24.0 26.0 89.0 60.0 41.0 29.0 15.0 45.0 65.0 89.0 71.0
i10 9.0 88.0 1.0 8.0 88.0 63.0 11.0 81.0 8.0 35.0 35.0
;
